outputs/case_410.model.txt
violation_suspend_operation = False
full_trust_behavior_relative_trading = True
full_trust_behavior_reasonable_explanation = False
full_trust_behavior_no_reason_investment_decision = False
full_trust_relative_trading_not_intentional = True
violation_warning = True
violation_other_measures = False
order_dismiss_personnel = True
violation_penalty_level = True
full_trust_behavior_subcontract_or_transfer_exempted = True
violation_suspend_fund_or_business = False
violation_revoke_license = False
full_trust_behavior_subcontract_or_transfer = False
violation_dismiss_officer = True
order_suspend_business_within_one_year = False
violation_111_not_improved = True
behavior_other_harmful = False
behavior_public_promotion_or_forecast = False
full_trust_behavior_change_account_without_reason = False
confidentiality_compliance = True
violation_fine_and_improvement = False
fiduciary_duty_compliance = True
no_prohibited_behaviors = True
behavior_unreasonable_commission = False
personnel_violation = False
duty_of_care_and_loyalty_observed = True
full_trust_behavior_self_dealing = False
full_trust_behavior_harm_client = False
behavior_not_return_commission = False
restricted_trading_prohibition_full_trust = True
behavior_transfer_proxy_vote_for_benefit = False
violation_111_occurred = False
no_prohibited_behavior_full_trust = True
restricted_trading_prohibition = True
behavior_false_or_fraud = False
behavior_agent_for_others = False
behavior_manipulate_market_price = False
behavior_leak_info = False
full_trust_behavior_other_harmful = False
personnel_violation_occurred = False
restricted_trading_reporting = True
full_trust_behavior_use_client_account = False
behavior_self_dealing = False
restricted_trading_reported = True
full_trust_behavior_use_info_for_others = False
behavior_offer_special_benefit = False
restricted_trading_occurred = False
behavior_change_account_without_reason = False
penalty = False
personnel_suspension_or_dismissal = True
confidentiality_observed = True
full_trust_behavior_profit_loss_sharing = False
restricted_trading_full_trust_occurred = False
violation_111_repeat_fine = False